4 
5  27 49 
6  14 34 53 
7  07 22 36 52 
8  07 22 37 52 
9  07 22 36 51 
10  06 21 36 51 
11  06 21 36 51 
12  06 21 36 51 
13  06 21 37 52 
14  07 22 37 52 
15  07 23 38 53 
16  08 23 38 53 
17  08 23 38 53 
18  08 23 38 53 
19  08 23 38 53 
20  08 23 38 54 
21  08 23 38 53 
22  08 23 40 54 
23  09 33 
0 
